
%FILE DATA:	Soccer Computational Problem for MiniZinc Models	%
%AUTHOR:	Jack Wall	%
%CONTACT:  	116397063@umail.ucc.ie			%
%LAST UPDATE:	03/02/2020, 16:22:15						%
%DESCRIPTION: 	200 games played with 40 games left				%


n=16; %number of teams

%Games to play
games=[|3,4|5,14|3,12|3,13|16,9|3,7|10,4|4,6|11,2|9,2|14,1|14,3|2,4|1,9|10,14|13,16|11,12|7,2|4,1|1,5|7,12|6,12|16,14|12,4|8,11|4,13|2,8|5,16|7,11|15,2|2,14|12,1|13,10|11,8|15,13|3,2|14,10|4,12|11,1|9,11|];

%Initial points
iPoints=[27,24,28,28,35,45,37,42,27,29,39,26,35,30,35,37];

%POSITION CONSTRAINTS
% [|teamID, operator, position|...]
% operators index:
%  1 for =  operator
%  2 for >  operator
%  3 for >= operator
%  4 for <  operator
%  5 for <= operator
positionConstraints=[|8,5,1|16,5,2|];